
  22    4
  10   10   10   10

   0   0   0   0   0   8 2 3 4 5 6 10 11 14 
   1  10  10  10  10   3 9 8 7 
  10  10  10  10  10   3 20 13 7 
   8  10  10  10  10   4 21 19 18 12 
   5  10  10  10  10   2 20 8 
   4  10  10  10  10   1 8 
   1  10  10  10  10   4 21 19 17 16 
   7  10  10  10  10   2 17 12 
   9  10  10  10  10   3 18 17 15 
   2  10  10  10  10   3 20 18 15 
   6  10  10  10  10   3 20 17 15 
   6  10  10  10  10   2 16 15 
   5  10  10  10  10   2 19 18 
   5  10  10  10  10   1 16 
   3  10  10  10  10   1 22
   9  10  10  10  10   1 22
   5  10  10  10  10   1 22
   1  10  10  10  10   1 22
   1  10  10  10  10   1 22
   4  10  10  10  10   1 22
   1  10  10  10  10   1 22
   0   0   0   0   0   0 
